block_table_value:
[[1 1 0 0 0 0 0 0]
 [1 1 0 0 0 0 0 0]
 [1 1 0 0 0 0 0 0]
 [1 1 0 0 0 0 0 0]
 [1 1 0 0 0 0 0 0]
 [1 1 0 0 0 0 0 0]
 [1 1 0 0 0 0 0 0]
 [1 1 0 0 0 0 0 0]]
Set parameter Username
Set parameter LicenseID to value 2603695
Academic license - for non-commercial use only - expires 2025-12-26
Gurobi Optimizer version 11.0.3 build v11.0.3rc0 (linux64 - "Debian GNU/Linux 12 (bookworm)")

CPU model: Intel(R) Xeon(R) Gold 6252 CPU @ 2.10GHz, instruction set [SSE2|AVX|AVX2|AVX512]
Thread count: 48 physical cores, 96 logical processors, using up to 32 threads

Optimize a model with 344 rows, 305 columns and 1120 nonzeros
Model fingerprint: 0x74395896
Variable types: 0 continuous, 305 integer (128 binary)
Coefficient statistics:
  Matrix range     [1e+00, 2e+00]
  Objective range  [1e+00, 1e+00]
  Bounds range     [1e+00, 1e+00]
  RHS range        [1e+00, 2e+00]
Presolve removed 82 rows and 102 columns
Presolve time: 0.00s
Presolved: 262 rows, 203 columns, 866 nonzeros
Variable types: 0 continuous, 203 integer (198 binary)
Found heuristic solution: objective 16.0000000
Found heuristic solution: objective 15.0000000
Found heuristic solution: objective 14.0000000

Root relaxation: objective 3.285714e+00, 480 iterations, 0.01 seconds (0.01 work units)

    Nodes    |    Current Node    |     Objective Bounds      |     Work
 Expl Unexpl |  Obj  Depth IntInf | Incumbent    BestBd   Gap | It/Node Time

     0     0    3.28571    0  147   14.00000    3.28571  76.5%     -    0s
H    0     0                      12.0000000    3.28571  72.6%     -    0s
H    0     0                      11.0000000    3.28571  70.1%     -    0s
H    0     0                       8.0000000    4.12442  48.4%     -    0s
     0     0    4.21285    0  155    8.00000    4.21285  47.3%     -    0s
     0     0    5.00000    0   86    8.00000    5.00000  37.5%     -    0s
     0     0    5.14551    0  121    8.00000    5.14551  35.7%     -    0s
     0     0    5.33333    0  130    8.00000    5.33333  33.3%     -    0s
     0     0    5.33333    0  125    8.00000    5.33333  33.3%     -    0s
     0     0    6.09412    0  126    8.00000    6.09412  23.8%     -    0s
     0     0     cutoff    0         8.00000    8.00000  0.00%     -    0s

Cutting planes:
  Gomory: 18
  MIR: 12
  StrongCG: 1
  GUB cover: 1
  Zero half: 4
  RLT: 8

Explored 1 nodes (2369 simplex iterations) in 0.12 seconds (0.08 work units)
Thread count was 32 (of 96 available processors)

Solution count 6: 8 11 12 ... 16

Optimal solution found (tolerance 1.00e-04)
Best objective 8.000000000000e+00, best bound 8.000000000000e+00, gap 0.0000%
LP solve time: 0.11942028999328613 s
Optimal value: 8.0
LP result:
x_0_0_0: 1.0
x_0_0_1: -0.0
x_0_0_2: -0.0
x_0_0_3: -0.0
x_0_0_4: -0.0
x_0_0_5: -0.0
x_0_0_6: -0.0
x_0_0_7: -0.0
x_0_1_0: 1.0
x_0_1_1: -0.0
x_0_1_2: -0.0
x_0_1_3: -0.0
x_0_1_4: -0.0
x_0_1_5: -0.0
x_0_1_6: -0.0
x_0_1_7: -0.0
x_1_0_0: -0.0
x_1_0_1: 1.0
x_1_0_2: -0.0
x_1_0_3: -0.0
x_1_0_4: -0.0
x_1_0_5: -0.0
x_1_0_6: -0.0
x_1_0_7: -0.0
x_1_1_0: -0.0
x_1_1_1: 1.0
x_1_1_2: -0.0
x_1_1_3: -0.0
x_1_1_4: -0.0
x_1_1_5: -0.0
x_1_1_6: -0.0
x_1_1_7: -0.0
x_2_0_0: -0.0
x_2_0_1: -0.0
x_2_0_2: 1.0
x_2_0_3: -0.0
x_2_0_4: -0.0
x_2_0_5: -0.0
x_2_0_6: -0.0
x_2_0_7: -0.0
x_2_1_0: -0.0
x_2_1_1: -0.0
x_2_1_2: -0.0
x_2_1_3: -0.0
x_2_1_4: -0.0
x_2_1_5: -0.0
x_2_1_6: 1.0
x_2_1_7: -0.0
x_3_0_0: -0.0
x_3_0_1: -0.0
x_3_0_2: -0.0
x_3_0_3: -0.0
x_3_0_4: -0.0
x_3_0_5: -0.0
x_3_0_6: -0.0
x_3_0_7: 1.0
x_3_1_0: -0.0
x_3_1_1: -0.0
x_3_1_2: -0.0
x_3_1_3: -0.0
x_3_1_4: 1.0
x_3_1_5: -0.0
x_3_1_6: -0.0
x_3_1_7: -0.0
x_4_0_0: -0.0
x_4_0_1: -0.0
x_4_0_2: 1.0
x_4_0_3: -0.0
x_4_0_4: -0.0
x_4_0_5: -0.0
x_4_0_6: -0.0
x_4_0_7: -0.0
x_4_1_0: -0.0
x_4_1_1: -0.0
x_4_1_2: -0.0
x_4_1_3: -0.0
x_4_1_4: 1.0
x_4_1_5: -0.0
x_4_1_6: -0.0
x_4_1_7: -0.0
x_5_0_0: -0.0
x_5_0_1: -0.0
x_5_0_2: -0.0
x_5_0_3: -0.0
x_5_0_4: -0.0
x_5_0_5: 1.0
x_5_0_6: -0.0
x_5_0_7: -0.0
x_5_1_0: -0.0
x_5_1_1: -0.0
x_5_1_2: -0.0
x_5_1_3: 1.0
x_5_1_4: -0.0
x_5_1_5: -0.0
x_5_1_6: -0.0
x_5_1_7: -0.0
x_6_0_0: -0.0
x_6_0_1: -0.0
x_6_0_2: -0.0
x_6_0_3: -0.0
x_6_0_4: -0.0
x_6_0_5: 1.0
x_6_0_6: -0.0
x_6_0_7: -0.0
x_6_1_0: -0.0
x_6_1_1: -0.0
x_6_1_2: -0.0
x_6_1_3: 1.0
x_6_1_4: -0.0
x_6_1_5: -0.0
x_6_1_6: -0.0
x_6_1_7: -0.0
x_7_0_0: -0.0
x_7_0_1: -0.0
x_7_0_2: -0.0
x_7_0_3: -0.0
x_7_0_4: -0.0
x_7_0_5: -0.0
x_7_0_6: -0.0
x_7_0_7: 1.0
x_7_1_0: -0.0
x_7_1_1: -0.0
x_7_1_2: -0.0
x_7_1_3: -0.0
x_7_1_4: -0.0
x_7_1_5: -0.0
x_7_1_6: 1.0
x_7_1_7: -0.0
a_0_0: 1.0
a_0_1: -0.0
a_0_2: -0.0
a_0_3: -0.0
a_0_4: -0.0
a_0_5: -0.0
a_0_6: -0.0
a_0_7: -0.0
a_1_0: -0.0
a_1_1: 1.0
a_1_2: -0.0
a_1_3: -0.0
a_1_4: -0.0
a_1_5: -0.0
a_1_6: -0.0
a_1_7: -0.0
a_2_0: -0.0
a_2_1: -0.0
a_2_2: 1.0
a_2_3: 0.0
a_2_4: 1.0
a_2_5: 0.0
a_2_6: 0.0
a_2_7: 0.0
a_3_0: -0.0
a_3_1: -0.0
a_3_2: 1.0
a_3_3: 1.0
a_3_4: 0.0
a_3_5: 1.0
a_3_6: 1.0
a_3_7: 0.0
a_4_0: -0.0
a_4_1: -0.0
a_4_2: -0.0
a_4_3: 1.0
a_4_4: 1.0
a_4_5: -0.0
a_4_6: 0.0
a_4_7: -0.0
a_5_0: -0.0
a_5_1: -0.0
a_5_2: -0.0
a_5_3: 0.0
a_5_4: -0.0
a_5_5: 1.0
a_5_6: 1.0
a_5_7: -0.0
a_6_0: -0.0
a_6_1: -0.0
a_6_2: 1.0
a_6_3: -0.0
a_6_4: -0.0
a_6_5: -0.0
a_6_6: 1.0
a_6_7: 1.0
a_7_0: -0.0
a_7_1: -0.0
a_7_2: 0.0
a_7_3: 1.0
a_7_4: 1.0
a_7_5: -0.0
a_7_6: -0.0
a_7_7: 1.0
b_0_0: 1.0
b_0_1: 1.0
b_0_2: 0.0
b_0_3: 0.0
b_0_4: 0.0
b_0_5: 0.0
b_0_6: 0.0
b_0_7: 0.0
b_1_0: 1.0
b_1_1: 1.0
b_1_2: 0.0
b_1_3: 0.0
b_1_4: 0.0
b_1_5: 0.0
b_1_6: 0.0
b_1_7: 0.0
b_2_0: 1.0
b_2_1: -0.0
b_2_2: -0.0
b_2_3: 0.0
b_2_4: 0.0
b_2_5: 0.0
b_2_6: 0.0
b_2_7: 0.0
b_3_0: -0.0
b_3_1: 1.0
b_3_2: 0.0
b_3_3: -0.0
b_3_4: 0.0
b_3_5: 0.0
b_3_6: 0.0
b_3_7: 0.0
b_4_0: -0.0
b_4_1: 1.0
b_4_2: 0.0
b_4_3: 0.0
b_4_4: -0.0
b_4_5: 0.0
b_4_6: 0.0
b_4_7: 0.0
b_5_0: 1.0
b_5_1: -0.0
b_5_2: 0.0
b_5_3: 0.0
b_5_4: 0.0
b_5_5: -0.0
b_5_6: 0.0
b_5_7: 0.0
b_6_0: -0.0
b_6_1: 1.0
b_6_2: 0.0
b_6_3: 0.0
b_6_4: 0.0
b_6_5: 0.0
b_6_6: -0.0
b_6_7: 0.0
b_7_0: 1.0
b_7_1: -0.0
b_7_2: 0.0
b_7_3: 0.0
b_7_4: 0.0
b_7_5: 0.0
b_7_6: 0.0
b_7_7: -0.0
A_0: -0.0
B_0: 1.0
C_0: -0.0
D_0: 4.0
Cin_0: 2.0
Cout_0: 8.0
A_1: -0.0
B_1: 1.0
C_1: -0.0
D_1: 4.0
Cin_1: 2.0
Cout_1: 8.0
A_2: 1.0
B_2: 1.0
C_2: 2.0
D_2: 0.0
Cin_2: 5.0
Cout_2: 3.0
A_3: 3.0
B_3: 1.0
C_3: 2.0
D_3: 0.0
Cin_3: 7.0
Cout_3: 5.0
A_4: 1.0
B_4: 1.0
C_4: 2.0
D_4: 0.0
Cin_4: 5.0
Cout_4: 3.0
A_5: 1.0
B_5: 1.0
C_5: 1.0
D_5: 0.0
Cin_5: 4.0
Cout_5: 2.0
A_6: 2.0
B_6: 1.0
C_6: 2.0
D_6: 0.0
Cin_6: 6.0
Cout_6: 4.0
A_7: 2.0
B_7: 1.0
C_7: 1.0
D_7: 0.0
Cin_7: 5.0
Cout_7: 3.0
Comm_Volume: 8.0
Allocation Matrix:
0  0  /  /  /  /  /  /  
1  1  /  /  /  /  /  /  
2  6  /  /  /  /  /  /  
7  4  /  /  /  /  /  /  
2  4  /  /  /  /  /  /  
5  3  /  /  /  /  /  /  
5  3  /  /  /  /  /  /  
7  6  /  /  /  /  /  /  
